15
1 0 3
2 0 3
2 1 1
3 0 3
3 1 2
3 2 5
4 0 3
4 1 4
4 2 1
4 3 4
5 0 4
5 1 4
5 2 1
5 3 3
5 4 5
6 0 4
6 1 3
6 2 5
6 3 4
6 4 4
6 5 3
7 0 4
7 1 5
7 2 2
7 3 3
7 4 5
7 5 5
7 6 2
8 0 1
8 1 5
8 2 2
8 3 4
8 4 2
8 5 1
8 6 4
8 7 3
9 0 4
9 1 1
9 2 4
9 3 2
9 4 5
9 5 1
9 6 3
9 7 1
9 8 3
10 0 3
10 1 2
10 2 2
10 3 4
10 4 2
10 5 5
10 6 5
10 7 2
10 8 5
10 9 5
11 0 4
11 1 4
11 2 2
11 3 4
11 4 3
11 5 1
11 6 4
11 7 2
11 8 2
11 9 1
11 10 4
12 0 3
12 1 4
12 2 1
12 3 5
12 4 3
12 5 3
12 6 5
12 7 2
12 8 1
12 9 1
12 10 3
12 11 2
13 0 4
13 1 1
13 2 5
13 3 1
13 4 5
13 5 5
13 6 2
13 7 3
13 8 3
13 9 3
13 10 5
13 11 4
13 12 5
14 0 4
14 1 2
14 2 1
14 3 2
14 4 3
14 5 5
14 6 2
14 7 1
14 8 1
14 9 3
14 10 2
14 11 5
14 12 2
14 13 4
